
  12    4
  10   10   10   10

   0   0   0   0   0   3 2 4 7 
   8  10  10  10  10   2 10 3 
   9  10  10  10  10   2 11 5 
   6  10  10  10  10   2 10 5 
   5  10  10  10  10   2 9 6 
   9  10  10  10  10   1 8 
   8  10  10  10  10   1 8 
   3  10  10  10  10   1 12
   4  10  10  10  10   1 12
   7  10  10  10  10   1 12
  10  10  10  10  10   1 12
   0   0   0   0   0   0 
